GLPSOL: GLPK LP/MIP Solver, v4.55
Parameter(s) specified in the command line:
 -m tmp.mod
Reading model section from tmp.mod...
Reading data section from tmp.mod...
5135 lines were read
Generating obj...
Generating kirhoff...
Generating init_charge...
Generating batt_size...
Model has been successfully generated
GLPK Simplex Optimizer, v4.55
4664 rows, 8332 columns, 17166 non-zeros
Preprocessing...
3704 rows, 8212 columns, 16932 non-zeros
Scaling...
 A: min|aij| =  1.000e+00  max|aij| =  1.000e+00  ratio =  1.000e+00
Problem data seem to be well scaled
Constructing initial basis...
Size of triangular part is 2991
      0: obj =   0.000000000e+00  infeas =  3.209e+03 (713)
    500: obj =   0.000000000e+00  infeas =  2.656e+03 (482)
   1000: obj =   1.820000000e+02  infeas =  6.080e+02 (267)
*  1477: obj =   2.210000000e+02  infeas =  0.000e+00 (234)
*  1500: obj =   1.980000000e+02  infeas =  0.000e+00 (231)
*  1758: obj =   2.200000000e+01  infeas =  0.000e+00 (225)
OPTIMAL LP SOLUTION FOUND
Time used:   0.5 secs
Memory used: 16.3 Mb (17041840 bytes)
#OUTPUT:
22
-66 -36 -26 -60 -21 -3 -3 -2 0 -3 -2 -44 5 -3 0 0 0 0 3 0 0 0 -10 -71 -10 0 -6 0 0 0 -6 0 -26 0 2 -10 0 0 0 -13 0 0 3 0 0 -51 0 -33 -1 3 0 0 0 0 0 0 -1 -3 -4 0 -26 0 -4 -1 0 0 -9 0 0 0 5 0 0 0 0 1 0 0 70 0 0 0 0 0 0 -68 2 0 0 0 0 0 0 0 0 1 0 0 0 0 -51 -2 0 -1 -26 5 0 0 0 0 0 0 1 5 0 0 -8 -65 0 0 0 0 0 -3 0 0 0 -6 17 0 1 0 0 0 -2 0 0 0 0 0 -26 0 0 -87 -3 5 -71 1 -6 0 0 0 6 -12 0 0 0 0 0 0 0 -6 0 0 0 0 -4 0 0 -3 0 0 -71 0 0 -78 0 0 0 0 0 -51 0 -2 0 3 0 0 -3 0 75 0 0 0 70 0 0 0 0 0 0 0 0 10 0 0 0 0 0 0 0 0 0 0 0 0 0 0 0 8 0 0 0 0 8 0 0 0 0 1 -48 -1 0 -7 0 0 1 0 0 0 0 0 0 0 0 0 0 0 0 0 0 0 0 0 -2 -10 0 0 0 0 0 0 -1 0 4 0 0 0 -93 0 0 0 0 0 4 0 0 13 0 1 0 9 0 0 0 0 0 0 0 0 0 -1 0 -1 0 0 0 0 0 0 0 0 0 0 0 0 1 4 0 0 0 -5 0 2 0 0 0 0 0 0 0 -10 0 0 -2 3 0 1 0 0 0 0 10 4 0 0 0 0 0 0 0 -77 0 0 0 0 0 0 0 0 0 0 0 0 0 0 0 -4 0 0 0 0 0 0 0 65 0 0 0 0 0 0 0 0 0 0 0 0 0 0 0 0 0 0 0 0 0 -71 -3 -65 0 0 0 0 0 0 0 0 0 0 0 0 -81 0 0 0 8 70 0 -3 0 9 0 0 0 0 3 1 0 0 6 0 -3 0 0 51 -75 -69 -1 0 0 0 0 0 37 2 8 0 0 0 0 0 0 0 0 0 0 2 21 -11 0 0 0 0 -4 0 0 -4 -9 0 0 0 1 0 1 0 0 0 0 3 -4 5 0 0 0 10 2 -1 0 -10 -6 2 0 0 0 0 0 0 0 0 0 4 0 0 0 0 0 0 0 -1 1 6 -6 0 0 0 0 71 3 65 0 0 0 0 0 0 0 0 0 0 0 0 0 0 0 0 0 0 0 0 0 0 0 0 0 0 0 0 0 0 0 0 0 0 0 0 0 0 0 0 0 0 0 0 0 0 0 0 0 0 0 0 0 
-2 0 -66 -15 1 0 0 0 -3 -3 0 -12 0 0 -1 0 0 0 0 0 0 -1 -1 0 -1 0 0 0 0 0 0 0 -66 0 -1 0 0 0 0 0 0 0 0 0 0 -1 0 -5 -4 0 0 0 0 0 -66 0 0 0 0 0 0 0 0 0 0 0 0 0 0 0 0 0 0 0 0 0 0 0 0 0 0 0 0 0 0 1 0 -3 0 0 0 0 0 0 0 0 0 0 0 0 -1 0 0 0 1 0 0 0 0 0 0 0 0 0 0 0 0 0 0 0 0 0 0 0 0 0 0 0 -7 0 0 0 0 0 0 0 0 0 0 0 0 0 0 0 -3 0 0 1 0 0 0 0 0 0 0 0 0 0 0 0 0 0 0 0 0 0 0 0 0 0 0 0 0 0 0 0 0 0 0 0 0 -1 0 0 0 0 0 0 0 7 0 0 0 0 0 0 0 0 0 0 0 0 0 0 0 0 0 0 0 0 0 0 0 0 0 0 0 0 0 0 0 0 0 0 0 0 0 0 0 0 -1 0 0 -7 0 1 0 0 0 0 0 0 0 0 0 0 0 0 0 0 0 0 0 0 0 0 0 0 0 0 0 0 -1 1 0 0 0 0 0 0 0 0 0 0 0 0 3 -7 0 1 0 0 0 0 0 0 0 0 0 0 0 0 0 10 0 0 0 0 0 0 -1 0 0 0 0 0 0 0 0 0 0 0 0 0 0 0 0 0 0 0 0 0 0 0 0 0 0 0 0 0 0 0 0 0 0 0 0 0 0 0 0 0 0 0 0 0 0 0 0 0 0 0 0 0 0 0 0 0 0 0 0 0 0 0 0 0 0 0 0 0 0 0 0 0 0 0 0 0 0 0 0 0 0 0 0 0 0 0 0 0 0 0 0 0 0 0 0 0 0 0 0 0 0 0 0 0 0 0 0 0 0 1 0 0 0 0 3 0 0 0 0 0 0 0 0 1 0 0 0 1 0 0 0 0 1 0 0 0 0 0 0 0 0 0 0 0 0 0 1 0 0 0 0 0 0 0 -3 7 0 0 0 0 0 -3 -7 0 0 1 0 0 0 0 0 0 0 0 0 0 0 0 0 0 0 0 0 0 0 0 0 0 0 0 0 -1 1 0 0 0 0 -1 1 0 0 0 0 0 0 0 0 0 0 0 0 0 0 0 0 0 0 0 0 0 0 0 0 0 0 0 0 0 0 0 0 0 0 0 0 0 0 0 0 0 0 0 0 0 0 0 0 0 0 0 0 0 0 0 0 0 0 0 0 0 0 
-27 -5 0 -60 -5 0 -46 6 -23 -3 3 4 -5 0 0 3 0 0 0 0 0 0 -7 -6 -8 0 -1 2 0 -3 -1 0 0 3 0 0 -52 0 0 0 3 0 0 0 0 0 0 2 0 0 0 0 0 0 0 -7 0 0 0 1 0 0 -7 0 2 0 0 0 -52 0 0 0 0 0 0 0 0 0 0 0 0 0 0 0 0 2 0 -16 0 0 0 0 0 0 0 0 2 0 0 0 0 3 0 0 0 0 0 23 0 -16 0 0 0 0 0 0 0 0 0 0 0 0 2 0 0 0 0 0 0 1 0 0 0 0 0 0 0 0 0 0 0 0 0 0 0 0 -6 0 0 14 0 0 0 0 0 0 0 0 0 0 0 0 0 0 -16 0 0 0 0 0 0 -16 0 0 -3 0 0 0 0 0 0 0 0 0 0 0 1 0 0 0 0 0 -3 0 0 0 0 0 0 0 0 0 0 3 0 0 0 0 0 0 0 0 0 0 0 -2 0 0 1 0 -1 0 0 0 0 0 0 -1 0 0 0 0 0 0 0 4 2 0 0 0 0 0 -6 0 0 0 0 -9 0 0 -1 0 2 0 0 0 0 0 2 0 0 0 0 0 0 0 0 0 0 0 0 0 0 0 0 0 0 0 0 0 0 0 0 0 0 0 0 0 0 0 0 0 0 0 0 0 0 0 0 0 0 0 -3 0 0 0 2 4 0 0 0 0 0 0 -1 0 0 0 0 0 0 -3 0 0 -1 0 0 0 0 0 0 0 2 0 0 0 0 0 0 0 0 0 0 0 0 0 0 0 0 0 0 0 0 -4 0 0 0 0 0 0 0 0 0 0 0 0 -10 0 0 0 0 0 0 0 0 0 0 0 0 0 0 0 0 1 0 0 0 -6 0 0 0 0 0 4 0 0 0 0 0 0 0 0 0 0 0 0 3 0 0 -3 0 0 0 0 0 0 0 0 0 0 0 0 0 0 0 0 0 0 0 1 0 0 0 0 0 0 0 0 0 0 6 0 0 9 0 0 -2 0 0 0 0 1 -3 0 0 0 0 0 0 0 0 0 0 0 0 0 0 0 3 2 -4 0 1 0 0 3 0 0 0 -2 0 0 0 0 0 4 0 0 0 0 0 0 0 -4 4 0 -4 14 0 0 0 0 0 0 0 -1 0 6 0 0 0 -4 0 0 0 0 0 0 0 0 0 0 0 0 0 0 0 0 0 0 0 0 0 0 0 0 0 0 0 0 0 0 0 0 0 0 0 0 0 0 0 0 0 0 0 0 0 0 0 0 0 0 0 
-12 0 0 -23 0 0 0 0 -6 0 0 0 -17 0 0 0 0 0 0 0 0 0 -10 0 0 0 0 0 0 0 0 0 0 0 0 0 0 0 0 -17 0 0 0 0 0 0 0 0 0 0 0 0 0 0 0 -6 0 0 0 0 0 0 0 0 0 0 0 0 0 0 0 0 0 0 0 0 0 0 0 0 0 0 0 0 0 0 -2 0 0 0 0 0 0 0 0 0 0 0 0 0 0 0 0 0 17 0 0 0 0 0 0 0 0 0 0 0 0 0 0 0 0 0 0 0 0 0 0 -2 0 0 0 6 0 0 0 0 0 0 0 0 0 0 0 0 0 0 0 0 0 0 0 0 0 0 0 0 0 0 0 0 0 0 0 0 0 0 0 0 0 0 0 0 0 0 0 0 0 0 0 0 0 0 0 0 0 0 0 0 0 0 0 0 0 0 0 0 0 0 0 0 0 0 0 10 0 0 0 0 0 0 0 0 0 0 0 0 0 0 0 0 0 0 0 0 0 0 0 0 0 0 0 0 0 0 0 0 0 0 0 0 0 0 0 0 0 0 0 0 0 0 0 0 0 0 0 -17 0 0 0 0 0 0 0 0 0 0 0 0 0 0 0 0 0 0 0 0 0 0 0 0 0 0 0 0 0 0 0 0 0 0 0 0 0 0 0 0 0 0 0 0 0 0 0 0 0 0 0 0 0 0 0 0 0 2 0 0 0 0 0 0 0 -10 0 0 0 0 0 0 0 0 0 0 0 0 0 0 0 0 0 0 0 0 0 0 0 0 0 0 0 0 0 0 0 0 0 0 0 0 0 0 0 0 0 0 0 0 -6 0 0 0 0 0 0 0 0 0 0 0 0 0 0 0 0 0 0 0 0 0 0 0 0 0 0 0 0 0 0 0 0 0 0 0 0 0 0 0 0 0 0 0 0 0 0 0 0 0 0 0 0 0 0 0 0 0 0 0 0 0 0 0 0 0 0 0 17 0 0 0 0 0 0 0 0 0 0 0 0 0 0 17 0 0 0 0 0 0 0 0 0 0 0 0 0 0 0 0 0 0 0 0 0 0 0 0 0 10 0 0 0 0 -2 2 0 0 0 0 0 0 0 0 0 0 0 0 0 0 6 0 0 0 0 0 0 0 0 0 0 0 0 0 0 0 0 0 0 0 0 0 0 0 0 0 0 0 0 0 0 0 0 0 0 0 0 0 0 0 0 0 0 0 0 0 0 0 0 0 0 0 0 0 0 0 0 0 0 0 0 0 0 0 0 0 0 
0 0 0 0 0 0 0 0 0 0 0 0 0 0 0 0 0 0 0 0 0 0 0 0 0 0 0 0 0 0 0 0 0 0 0 0 0 0 0 0 0 0 0 0 0 0 0 0 0 0 0 0 0 0 0 0 0 0 0 0 0 0 0 0 0 0 0 0 0 0 0 0 0 0 0 0 0 0 0 0 0 0 0 0 0 0 0 0 0 0 0 0 0 0 0 0 0 0 0 0 0 0 0 0 0 0 0 0 0 0 0 0 0 0 0 0 0 0 0 0 0 0 0 0 0 0 0 0 0 0 0 0 0 0 0 0 0 0 0 0 0 0 0 0 0 0 0 0 0 0 0 0 0 0 0 0 0 0 0 0 0 0 0 0 0 0 0 0 0 0 0 0 0 0 0 0 0 0 0 0 0 0 0 0 0 0 0 0 0 0 0 0 0 0 0 0 0 0 0 0 0 0 0 0 0 0 0 0 0 0 0 0 0 0 0 0 0 0 0 0 0 0 0 0 0 0 0 0 0 0 0 0 0 0 0 0 0 0 0 0 0 0 0 0 0 0 0 0 0 0 0 0 0 0 0 0 0 0 0 0 0 0 0 0 0 0 0 0 0 0 0 0 0 0 0 0 0 0 0 0 0 0 0 0 0 0 0 0 0 0 0 0 0 0 0 0 0 0 0 0 0 0 0 0 0 0 0 0 0 0 0 0 0 0 0 0 0 0 0 0 0 0 0 0 0 0 0 0 0 0 0 0 0 0 0 0 0 0 0 0 0 0 0 0 0 0 0 0 0 0 0 0 0 0 0 0 0 0 0 0 0 0 0 0 0 0 0 0 0 0 0 0 0 0 0 0 0 0 0 0 0 0 0 0 0 0 0 0 0 0 0 0 0 0 0 0 0 0 0 0 0 0 0 0 0 0 0 0 0 0 0 0 0 0 0 0 0 0 0 0 0 0 0 0 0 0 0 0 0 0 0 0 0 0 0 0 0 0 0 0 0 0 0 0 0 0 0 0 0 0 0 0 0 0 0 0 0 0 0 0 0 0 0 0 0 0 0 0 0 0 0 0 0 0 0 0 0 0 0 0 0 0 0 0 0 0 0 0 0 0 0 0 0 0 0 0 0 0 0 0 0 0 0 0 0 0 0 0 0 0 0 0 0 0 0 0 0 0 0 0 0 0 0 0 0 0 0 0 0 0 0 0 0 0 0 0 0 0 0 0 0 0 0 0 0 0 0 0 0 0 0 0 0 0 0 0 0 0 0 0 0 0 0 
-59 -25 -41 -60 -21 0 2 2 -37 -1 3 1 -33 0 -3 -9 0 0 0 0 0 0 -10 0 -10 0 -6 0 0 0 -6 0 0 -9 0 -6 0 0 0 -17 -9 -3 0 -3 -3 0 0 0 0 0 0 0 0 0 0 -37 0 0 1 0 0 0 -8 -1 0 0 3 0 0 0 15 2 0 0 0 0 0 0 0 0 0 -2 0 0 0 -5 -2 0 0 0 0 0 0 -2 0 0 0 0 0 0 0 3 0 0 12 0 0 0 0 0 0 0 0 0 0 0 6 10 0 0 0 0 0 0 0 -2 0 -6 0 0 0 46 0 0 0 0 0 0 0 0 0 0 -5 0 0 0 0 1 0 0 0 0 0 -1 0 0 0 0 0 0 0 0 0 0 0 0 0 0 0 0 0 0 0 0 0 0 0 0 0 0 0 0 0 -1 0 -4 -4 5 0 0 0 0 0 0 0 0 0 0 0 0 0 0 0 -65 0 0 0 0 0 0 0 0 0 0 0 0 0 0 -4 0 0 0 0 0 0 0 0 0 0 1 0 0 0 0 0 4 3 0 0 0 0 0 0 0 0 0 0 0 0 0 0 0 0 0 -1 -17 0 0 0 0 0 0 -1 0 0 0 0 0 0 0 0 0 0 0 0 0 0 0 0 1 0 0 0 0 0 0 0 0 0 0 0 0 0 0 0 0 0 -5 0 0 0 0 -5 0 0 0 3 3 0 0 0 0 0 4 0 0 0 0 0 0 0 -7 0 0 0 0 0 0 0 0 0 0 0 0 0 0 0 0 0 0 0 0 5 0 0 0 0 0 0 0 0 0 0 -4 -2 0 0 0 0 0 0 0 0 0 0 -10 -42 0 0 0 0 0 0 0 0 0 0 0 0 0 0 0 0 -4 0 0 0 0 0 10 0 0 0 4 -4 0 0 -4 0 0 0 0 0 0 0 0 -15 0 0 -3 0 -5 0 0 2 0 0 0 0 0 0 0 0 0 0 0 0 0 0 -1 0 0 0 0 12 0 0 -1 0 0 0 0 0 0 0 0 0 1 5 12 0 0 0 0 0 0 0 0 0 0 0 0 0 0 0 0 0 0 5 0 -3 0 0 0 0 7 4 0 0 0 -4 4 0 0 -5 4 0 2 0 0 0 0 0 -3 4 -1 42 0 0 -1 1 0 0 0 0 4 0 0 0 -10 0 -4 0 4 0 0 0 0 0 0 0 0 0 0 0 0 0 0 0 0 0 0 0 0 0 0 0 0 0 0 0 0 0 0 0 0 0 0 0 0 0 0 0 0 0 0 0 0 0 0 0 0 0 
-79 -43 -13 -60 -1 -2 0 0 -49 -3 0 -2 0 0 -36 -9 0 -1 0 0 -41 4 -10 -74 -10 0 -4 -2 0 -74 0 0 -13 -23 4 0 0 1 0 0 17 1 0 1 1 0 0 0 0 0 0 0 0 0 -5 0 0 0 0 0 0 -5 -10 -1 0 0 -4 0 0 -4 0 2 0 0 0 0 0 -2 0 0 0 -2 -14 0 0 -1 -2 -41 3 1 1 0 0 -2 4 68 0 4 0 -1 0 0 0 0 -1 0 0 0 0 0 0 0 0 0 0 0 0 0 0 14 -1 0 0 0 0 -2 0 -6 0 0 0 3 0 4 0 0 0 0 0 0 0 0 4 -5 -3 0 -74 0 1 0 0 0 0 -4 0 -47 0 0 0 0 0 0 0 -4 0 0 0 0 0 0 0 0 0 0 -1 0 0 0 0 0 1 0 0 -4 0 0 0 0 -1 0 0 0 3 0 0 0 0 -7 -7 0 0 0 0 8 4 0 0 -77 5 0 0 0 0 0 0 0 -2 0 0 0 0 0 0 0 0 0 0 0 0 -1 0 1 0 0 0 0 0 -1 0 0 0 0 -6 2 0 0 -7 0 0 0 -1 0 0 0 0 0 0 0 -3 0 0 0 1 0 0 0 -5 0 0 0 0 0 0 0 0 0 -2 0 0 0 0 0 0 0 0 0 0 0 0 1 4 -1 0 0 0 0 0 4 0 0 0 -45 0 0 0 0 0 1 0 0 0 -3 0 4 2 0 0 0 0 0 5 -8 0 0 0 0 0 0 0 0 0 0 4 0 0 0 4 0 0 0 0 0 0 0 2 0 0 0 0 0 0 0 0 -6 -2 0 -4 0 0 0 2 0 0 0 0 0 0 0 0 0 0 0 -4 -1 0 4 0 0 0 0 0 0 0 0 0 5 0 -74 0 0 0 0 0 7 0 0 -40 0 0 0 0 0 0 0 0 0 15 0 -8 -3 0 0 0 0 2 0 3 0 0 0 0 13 0 0 0 0 0 0 0 0 -5 0 0 -1 -1 0 0 1 0 14 -1 0 7 0 3 0 0 0 1 -1 4 0 3 0 0 0 2 0 0 0 -1 -4 1 0 0 -4 0 0 0 1 -1 3 -2 0 -5 8 0 0 0 -4 -4 4 0 0 0 2 4 2 0 0 4 0 0 -2 0 0 0 0 4 1 0 -5 1 0 0 0 -5 74 0 0 0 -7 -45 0 0 0 0 0 0 0 0 0 0 0 0 0 0 0 0 0 0 0 0 0 0 0 0 0 0 0 0 0 0 0 0 0 0 0 0 0 0 0 0 0 0 0 0 0 0 0 0 0 0 
#OUTPUT END
Model has been successfully processed
